c 
c MolecularSimulation 0.9.3
c Simulation written: Jan 13 2012 -- 15:17:57
c Test: Distribution
c Input: ./data/testCNF/SWEEP_R8_K3_N20_M144_S002.cnf
c 
s UNSATISFIABLE
v 0
c algorithmTime:  1301
c solutionMemory: 0
c mixCount:       429
c extractCount:   0
c appendCount:    16797820
c splitCount:     429
c spliceCount:    7896181
c purifyCount:    143
c 
